Academic license - for non-commercial use only
Optimize a model with 1745 rows, 1575 columns and 114342 nonzeros
Variable types: 0 continuous, 1575 integer (1575 binary)
Coefficient statistics:
  Matrix range     [1e+00, 4e+01]
  Objective range  [1e+00, 4e+01]
  Bounds range     [1e+00, 1e+00]
  RHS range        [1e+00, 1e+02]
Presolve removed 506 rows and 393 columns
Presolve time: 0.47s
Presolved: 1239 rows, 1182 columns, 77229 nonzeros
Variable types: 0 continuous, 1182 integer (1182 binary)
Found heuristic solution: objective 115.0000000

Root relaxation: objective 5.925022e+01, 39 iterations, 0.01 seconds

    Nodes    |    Current Node    |     Objective Bounds      |     Work
 Expl Unexpl |  Obj  Depth IntInf | Incumbent    BestBd   Gap | It/Node Time

     0     0   59.25022    0   27  115.00000   59.25022  48.5%     -    0s
H    0     0                     107.0000000   59.25022  44.6%     -    0s
H    0     0                      89.0000000   59.25022  33.4%     -    0s
     0     0   66.23814    0   24   89.00000   66.23814  25.6%     -    0s
H    0     0                      88.0000000   66.23814  24.7%     -    0s
     0     0   67.57234    0   29   88.00000   67.57234  23.2%     -    0s
     0     0   75.38182    0   28   88.00000   75.38182  14.3%     -    0s
     0     0   75.38182    0   27   88.00000   75.38182  14.3%     -    1s
     0     0   75.38182    0   27   88.00000   75.38182  14.3%     -    1s
     0     0   75.38384    0   29   88.00000   75.38384  14.3%     -    1s
     0     0   80.00000    0    4   88.00000   80.00000  9.09%     -    1s
     0     0   80.00000    0   25   88.00000   80.00000  9.09%     -    1s
     0     0   80.00000    0   25   88.00000   80.00000  9.09%     -    2s
     0     0   80.00000    0   26   88.00000   80.00000  9.09%     -    2s
     0     0   80.00000    0   21   88.00000   80.00000  9.09%     -    2s
     0     0   82.00000    0    4   88.00000   82.00000  6.82%     -    2s
     0     0   82.00000    0   27   88.00000   82.00000  6.82%     -    2s
     0     0   82.00000    0   25   88.00000   82.00000  6.82%     -    2s
     0     0   82.00000    0   29   88.00000   82.00000  6.82%     -    2s
     0     0   82.00000    0   20   88.00000   82.00000  6.82%     -    2s
     0     0   82.00000    0   34   88.00000   82.00000  6.82%     -    2s
     0     0   82.00000    0   31   88.00000   82.00000  6.82%     -    2s
     0     0   82.00000    0   31   88.00000   82.00000  6.82%     -    2s
     0     0   83.50000    0   24   88.00000   83.50000  5.11%     -    2s
     0     0   83.50000    0   20   88.00000   83.50000  5.11%     -    2s
     0     0   85.00000    0    4   88.00000   85.00000  3.41%     -    2s
     0     0   85.00000    0   29   88.00000   85.00000  3.41%     -    2s
     0     0   85.00000    0   24   88.00000   85.00000  3.41%     -    2s
     0     0   85.00000    0   26   88.00000   85.00000  3.41%     -    2s
     0     0   85.00000    0    9   88.00000   85.00000  3.41%     -    2s
     0     0   85.00000    0   24   88.00000   85.00000  3.41%     -    2s
     0     0   85.00000    0   24   88.00000   85.00000  3.41%     -    2s
     0     0   85.00000    0   24   88.00000   85.00000  3.41%     -    2s
     0     0   85.00000    0   29   88.00000   85.00000  3.41%     -    2s
     0     0   85.00000    0   10   88.00000   85.00000  3.41%     -    2s
H    0     0                      87.0000000   85.00000  2.30%     -    2s
     0     0   85.00000    0    4   87.00000   85.00000  2.30%     -    2s
     0     0   86.00000    0    6   87.00000   86.00000  1.15%     -    2s
     0     0   86.00000    0   32   87.00000   86.00000  1.15%     -    3s
     0     0   86.00000    0   33   87.00000   86.00000  1.15%     -    3s
     0     0   86.00000    0   33   87.00000   86.00000  1.15%     -    3s
     0     0   86.00000    0   30   87.00000   86.00000  1.15%     -    3s
     0     0   86.00000    0    9   87.00000   86.00000  1.15%     -    3s
     0     0   86.00000    0    4   87.00000   86.00000  1.15%     -    3s
     0     0   86.00000    0   22   87.00000   86.00000  1.15%     -    3s
     0     0   86.00000    0    4   87.00000   86.00000  1.15%     -    3s
     0     0   86.00000    0   20   87.00000   86.00000  1.15%     -    3s
H    0     0                      86.0000000   86.00000  0.00%     -    3s

Explored 1 nodes (1828 simplex iterations) in 3.12 seconds
Thread count was 8 (of 8 available processors)

Solution count 6: 86 87 88 ... 115

Optimal solution found (tolerance 1.00e-04)
Best objective 8.600000000000e+01, best bound 8.600000000000e+01, gap 0.0000%

